\* rock_paper_scissors *\
Maximize
OBJ: vrs_w
Subject To
_C1: vrs_URIEN >= 0
_C10: vrs_IBUKI >= 0
_C11: vrs_RASHID >= 0
_C12: vrs_ZANGIEF >= 0
_C13: vrs_NECALLI >= 0
_C14: vrs_KARIN >= 0
_C15: vrs_RAINBOW_MIKA >= 0
_C16: vrs_ALEX >= 0
_C17: vrs_NASH >= 0
_C18: vrs_KEN >= 0
_C19: vrs_CAMMY >= 0
_C2: vrs_DICTATOR >= 0
_C20: vrs_CHUN_LI >= 0
_C21: vrs_RYU >= 0
_C22: vrs_JURI >= 0
_C23: vrs_GOUKI >= 0
_C24: vrs_KOLIN >= 0
_C25: vrs_ALEX + vrs_BIRDIE + vrs_BOXER + vrs_CAMMY + vrs_CHUN_LI + vrs_CLAW
 + vrs_DHALSIM + vrs_DICTATOR + vrs_F.A.N.G + vrs_GOUKI + vrs_GUILE
 + vrs_IBUKI + vrs_JURI + vrs_KARIN + vrs_KEN + vrs_KOLIN + vrs_LAURA
 + vrs_NASH + vrs_NECALLI + vrs_RAINBOW_MIKA + vrs_RASHID + vrs_RYU
 + vrs_URIEN + vrs_ZANGIEF = 1
_C26: - 0.14 vrs_ALEX - 0.14 vrs_BIRDIE - 0.06 vrs_BOXER - 0.22 vrs_CAMMY
 - 0.18 vrs_CHUN_LI - 0.04 vrs_CLAW - 0.06 vrs_DHALSIM + 0.02 vrs_DICTATOR
 - 0.18 vrs_GOUKI - 0.02 vrs_GUILE - 0.08 vrs_IBUKI - 0.18 vrs_JURI
 - 0.12 vrs_KARIN - 0.18 vrs_KEN - 0.28 vrs_KOLIN - 0.06 vrs_LAURA
 - 0.14 vrs_NASH - 0.1 vrs_NECALLI - 0.1 vrs_RAINBOW_MIKA - 0.1 vrs_RASHID
 - 0.16 vrs_RYU - 0.14 vrs_ZANGIEF - vrs_w >= 0
_C27: - 0.14 vrs_ALEX - 0.02 vrs_BIRDIE - 0.1 vrs_BOXER - 0.2 vrs_CAMMY
 - 0.16 vrs_CHUN_LI - 0.04 vrs_DHALSIM - 0.14 vrs_F.A.N.G - 0.18 vrs_GOUKI
 - 0.1 vrs_GUILE - 0.12 vrs_IBUKI - 0.24 vrs_JURI - 0.12 vrs_KARIN
 - 0.16 vrs_KEN - 0.26 vrs_KOLIN + 0.02 vrs_LAURA - 0.2 vrs_NASH
 - 0.12 vrs_NECALLI - 0.04 vrs_RAINBOW_MIKA - 0.08 vrs_RASHID - 0.22 vrs_RYU
 - 0.02 vrs_URIEN - 0.04 vrs_ZANGIEF - vrs_w >= 0
_C28: - 0.04 vrs_ALEX - 0.02 vrs_BIRDIE - 0.14 vrs_CAMMY - 0.12 vrs_CHUN_LI
 - 0.06 vrs_CLAW - 0.06 vrs_DHALSIM + 0.1 vrs_DICTATOR - 0.02 vrs_F.A.N.G
 - 0.14 vrs_GOUKI - 0.06 vrs_GUILE - 0.04 vrs_IBUKI - 0.2 vrs_JURI
 - 0.1 vrs_KARIN - 0.16 vrs_KEN - 0.24 vrs_KOLIN + 0.06 vrs_LAURA
 - 0.14 vrs_NASH - 0.12 vrs_NECALLI - 0.02 vrs_RAINBOW_MIKA - 0.08 vrs_RASHID
 - 0.18 vrs_RYU + 0.06 vrs_URIEN + 0.02 vrs_ZANGIEF - vrs_w >= 0
_C29: 0.02 vrs_ALEX - 0.08 vrs_BIRDIE + 0.06 vrs_BOXER - 0.1 vrs_CAMMY
 - 0.18 vrs_CHUN_LI + 0.08 vrs_CLAW + 0.04 vrs_DICTATOR - 0.08 vrs_F.A.N.G
 - 0.18 vrs_GOUKI - 0.12 vrs_GUILE - 0.04 vrs_IBUKI - 0.12 vrs_JURI
 - 0.06 vrs_KARIN - 0.14 vrs_KEN - 0.16 vrs_KOLIN + 0.02 vrs_LAURA
 - 0.14 vrs_NASH - 0.02 vrs_NECALLI - 0.06 vrs_RAINBOW_MIKA + 0.06 vrs_RASHID
 - 0.18 vrs_RYU + 0.06 vrs_URIEN - 0.32 vrs_ZANGIEF - vrs_w >= 0
_C3: vrs_BOXER >= 0
_C30: - 0.08 vrs_ALEX - 0.02 vrs_BIRDIE - 0.06 vrs_BOXER - 0.12 vrs_CAMMY
 - 0.1 vrs_CHUN_LI - 0.06 vrs_CLAW - 0.02 vrs_DHALSIM - 0.02 vrs_DICTATOR
 - 0.08 vrs_F.A.N.G - 0.04 vrs_GOUKI - 0.02 vrs_GUILE - 0.02 vrs_IBUKI
 - 0.04 vrs_JURI - 0.04 vrs_KARIN - 0.06 vrs_KEN - 0.22 vrs_KOLIN
 - 0.14 vrs_NASH - 0.02 vrs_NECALLI - 0.08 vrs_RAINBOW_MIKA - 0.08 vrs_RASHID
 - 0.04 vrs_RYU + 0.06 vrs_URIEN + 0.06 vrs_ZANGIEF - vrs_w >= 0
_C31: - 0.08 vrs_ALEX - 0.02 vrs_BIRDIE + 0.06 vrs_BOXER - 0.06 vrs_CAMMY
 - 0.06 vrs_CHUN_LI - 0.08 vrs_DHALSIM - 0.06 vrs_F.A.N.G - 0.1 vrs_GOUKI
 + 0.04 vrs_GUILE - 0.06 vrs_IBUKI - 0.16 vrs_JURI - 0.06 vrs_KARIN
 - 0.08 vrs_KEN - 0.16 vrs_KOLIN + 0.06 vrs_LAURA - 0.12 vrs_NASH
 - 0.02 vrs_NECALLI - 0.04 vrs_RAINBOW_MIKA - 0.04 vrs_RASHID - 0.1 vrs_RYU
 + 0.04 vrs_URIEN - 0.06 vrs_ZANGIEF - vrs_w >= 0
_C32: 0.02 vrs_BOXER - 0.14 vrs_CAMMY - 0.1 vrs_CHUN_LI + 0.02 vrs_CLAW
 + 0.08 vrs_DHALSIM + 0.02 vrs_DICTATOR - 0.12 vrs_GOUKI + 0.06 vrs_GUILE
 - 0.08 vrs_IBUKI - 0.16 vrs_JURI - 0.1 vrs_KARIN - 0.06 vrs_KEN
 - 0.24 vrs_KOLIN + 0.02 vrs_LAURA - 0.06 vrs_NASH - 0.08 vrs_NECALLI
 - 0.04 vrs_RAINBOW_MIKA + 0.04 vrs_RASHID - 0.12 vrs_RYU + 0.14 vrs_URIEN
 - 0.1 vrs_ZANGIEF - vrs_w >= 0
_C33: - 0.06 vrs_BIRDIE + 0.06 vrs_BOXER - 0.1 vrs_CAMMY - 0.1 vrs_CHUN_LI
 - 0.04 vrs_CLAW + 0.12 vrs_DHALSIM + 0.1 vrs_DICTATOR + 0.02 vrs_F.A.N.G
 - 0.16 vrs_GOUKI + 0.04 vrs_IBUKI - 0.06 vrs_JURI + 0.06 vrs_KARIN
 - 0.14 vrs_KEN - 0.24 vrs_KOLIN + 0.02 vrs_LAURA - 0.1 vrs_NASH
 + 0.02 vrs_NECALLI - 0.02 vrs_RAINBOW_MIKA - 0.1 vrs_RASHID - 0.12 vrs_RYU
 + 0.02 vrs_URIEN - 0.08 vrs_ZANGIEF - vrs_w >= 0
_C34: - 0.04 vrs_ALEX + 0.02 vrs_BOXER - 0.06 vrs_CAMMY - 0.14 vrs_CHUN_LI
 + 0.06 vrs_CLAW + 0.08 vrs_DHALSIM + 0.14 vrs_DICTATOR - 0.12 vrs_GOUKI
 - 0.02 vrs_GUILE - 0.02 vrs_IBUKI - 0.14 vrs_JURI - 0.1 vrs_KARIN
 - 0.1 vrs_KEN - 0.18 vrs_KOLIN + 0.08 vrs_LAURA - 0.1 vrs_NASH
 + 0.04 vrs_NECALLI - 0.04 vrs_RAINBOW_MIKA - 0.12 vrs_RYU + 0.02 vrs_ZANGIEF
 - vrs_w >= 0
_C35: - 0.02 vrs_ALEX + 0.08 vrs_BIRDIE + 0.04 vrs_BOXER - 0.08 vrs_CAMMY
 - 0.1 vrs_CHUN_LI + 0.06 vrs_CLAW + 0.04 vrs_DHALSIM + 0.12 vrs_DICTATOR
 + 0.02 vrs_F.A.N.G - 0.08 vrs_GOUKI - 0.04 vrs_GUILE - 0.08 vrs_JURI
 - 0.04 vrs_KARIN - 0.08 vrs_KEN - 0.18 vrs_KOLIN + 0.02 vrs_LAURA
 - 0.08 vrs_NASH - 0.04 vrs_NECALLI - 0.06 vrs_RAINBOW_MIKA - 0.02 vrs_RASHID
 - 0.08 vrs_RYU + 0.08 vrs_URIEN + 0.02 vrs_ZANGIEF - vrs_w >= 0
_C36: - 0.04 vrs_ALEX - 0.04 vrs_BIRDIE + 0.08 vrs_BOXER - 0.04 vrs_CAMMY
 - 0.08 vrs_CHUN_LI + 0.04 vrs_CLAW - 0.06 vrs_DHALSIM + 0.08 vrs_DICTATOR
 - 0.04 vrs_GOUKI + 0.1 vrs_GUILE + 0.02 vrs_IBUKI - 0.08 vrs_JURI
 - 0.02 vrs_KEN - 0.14 vrs_KOLIN + 0.08 vrs_LAURA - 0.04 vrs_NASH
 - 0.04 vrs_RAINBOW_MIKA - 0.02 vrs_RYU + 0.1 vrs_URIEN - 0.02 vrs_ZANGIEF
 - vrs_w >= 0
_C37: 0.1 vrs_BIRDIE - 0.02 vrs_BOXER - 0.12 vrs_CAMMY - 0.06 vrs_CHUN_LI
 + 0.06 vrs_CLAW + 0.32 vrs_DHALSIM + 0.04 vrs_DICTATOR - 0.02 vrs_F.A.N.G
 - 0.14 vrs_GOUKI + 0.08 vrs_GUILE - 0.02 vrs_IBUKI - 0.08 vrs_JURI
 - 0.04 vrs_KARIN - 0.04 vrs_KEN - 0.18 vrs_KOLIN - 0.06 vrs_LAURA
 + 0.06 vrs_NASH - 0.06 vrs_RAINBOW_MIKA + 0.02 vrs_RASHID - 0.06 vrs_RYU
 + 0.14 vrs_URIEN - vrs_w >= 0
_C38: 0.02 vrs_ALEX + 0.08 vrs_BIRDIE + 0.12 vrs_BOXER - 0.06 vrs_CAMMY
 - 0.08 vrs_CHUN_LI + 0.02 vrs_CLAW + 0.02 vrs_DHALSIM + 0.12 vrs_DICTATOR
 - 0.04 vrs_F.A.N.G - 0.06 vrs_GOUKI - 0.02 vrs_GUILE + 0.04 vrs_IBUKI
 - 0.06 vrs_JURI - 0.06 vrs_KEN - 0.14 vrs_KOLIN + 0.02 vrs_LAURA
 - 0.06 vrs_NASH + 0.02 vrs_RAINBOW_MIKA - 0.08 vrs_RYU + 0.1 vrs_URIEN
 - vrs_w >= 0
_C39: - 0.02 vrs_ALEX + 0.1 vrs_BIRDIE + 0.1 vrs_BOXER - 0.06 vrs_CAMMY
 - 0.04 vrs_CHUN_LI + 0.06 vrs_CLAW + 0.06 vrs_DHALSIM + 0.12 vrs_DICTATOR
 + 0.1 vrs_F.A.N.G - 0.06 vrs_GOUKI - 0.06 vrs_GUILE + 0.04 vrs_IBUKI
 - 0.08 vrs_JURI - 0.06 vrs_KEN - 0.12 vrs_KOLIN + 0.04 vrs_LAURA
 - 0.08 vrs_NASH - 0.06 vrs_RAINBOW_MIKA - 0.06 vrs_RYU + 0.12 vrs_URIEN
 + 0.04 vrs_ZANGIEF - vrs_w >= 0
_C4: vrs_DHALSIM >= 0
_C40: - 0.04 vrs_ALEX + 0.04 vrs_BIRDIE + 0.02 vrs_BOXER - 0.04 vrs_CAMMY
 - 0.04 vrs_CHUN_LI + 0.04 vrs_CLAW + 0.06 vrs_DHALSIM + 0.04 vrs_DICTATOR
 + 0.04 vrs_F.A.N.G - 0.1 vrs_GOUKI + 0.02 vrs_GUILE + 0.06 vrs_IBUKI
 - 0.08 vrs_JURI + 0.06 vrs_KARIN - 0.02 vrs_KEN - 0.08 vrs_KOLIN
 + 0.08 vrs_LAURA - 0.04 vrs_NASH - 0.02 vrs_NECALLI + 0.04 vrs_RASHID
 - 0.04 vrs_RYU + 0.1 vrs_URIEN + 0.06 vrs_ZANGIEF - vrs_w >= 0
_C41: 0.04 vrs_BOXER - 0.06 vrs_CAMMY + 0.08 vrs_CLAW - 0.02 vrs_DHALSIM
 + 0.14 vrs_DICTATOR + 0.04 vrs_F.A.N.G - 0.06 vrs_GOUKI + 0.02 vrs_IBUKI
 - 0.08 vrs_JURI + 0.02 vrs_KARIN - 0.04 vrs_KEN - 0.1 vrs_KOLIN
 + 0.08 vrs_LAURA - 0.06 vrs_NASH - 0.02 vrs_NECALLI + 0.04 vrs_RAINBOW_MIKA
 + 0.04 vrs_RASHID - 0.06 vrs_RYU + 0.14 vrs_URIEN - vrs_w >= 0
_C42: 0.06 vrs_ALEX + 0.06 vrs_BIRDIE + 0.14 vrs_BOXER - 0.02 vrs_CHUN_LI
 + 0.12 vrs_CLAW + 0.14 vrs_DHALSIM + 0.2 vrs_DICTATOR + 0.1 vrs_F.A.N.G
 - 0.04 vrs_GOUKI + 0.1 vrs_GUILE + 0.08 vrs_IBUKI + 0.08 vrs_KARIN
 - 0.02 vrs_KEN - 0.08 vrs_KOLIN + 0.14 vrs_LAURA + 0.06 vrs_NECALLI
 + 0.04 vrs_RAINBOW_MIKA + 0.04 vrs_RASHID - 0.08 vrs_RYU + 0.14 vrs_URIEN
 - 0.06 vrs_ZANGIEF - vrs_w >= 0
_C43: 0.04 vrs_ALEX + 0.06 vrs_BIRDIE + 0.16 vrs_BOXER + 0.02 vrs_CAMMY
 - 0.02 vrs_CHUN_LI + 0.08 vrs_CLAW + 0.14 vrs_DHALSIM + 0.16 vrs_DICTATOR
 + 0.1 vrs_F.A.N.G + 0.02 vrs_GOUKI + 0.14 vrs_GUILE + 0.08 vrs_IBUKI
 + 0.06 vrs_KARIN - 0.04 vrs_KOLIN + 0.06 vrs_LAURA + 0.02 vrs_NASH
 + 0.06 vrs_NECALLI + 0.02 vrs_RAINBOW_MIKA + 0.02 vrs_RASHID + 0.04 vrs_RYU
 + 0.18 vrs_URIEN + 0.04 vrs_ZANGIEF - vrs_w >= 0
_C44: 0.06 vrs_ALEX + 0.14 vrs_BIRDIE + 0.14 vrs_BOXER - 0.02 vrs_CHUN_LI
 + 0.06 vrs_CLAW + 0.1 vrs_DHALSIM + 0.2 vrs_DICTATOR + 0.06 vrs_F.A.N.G
 - 0.04 vrs_GOUKI + 0.1 vrs_GUILE + 0.08 vrs_IBUKI + 0.02 vrs_JURI
 + 0.06 vrs_KARIN - 0.02 vrs_KEN + 0.12 vrs_LAURA + 0.06 vrs_NECALLI
 + 0.04 vrs_RAINBOW_MIKA + 0.04 vrs_RASHID - 0.02 vrs_RYU + 0.22 vrs_URIEN
 + 0.12 vrs_ZANGIEF - vrs_w >= 0
_C45: 0.1 vrs_BIRDIE + 0.12 vrs_BOXER + 0.02 vrs_CAMMY + 0.06 vrs_CLAW
 + 0.18 vrs_DHALSIM + 0.16 vrs_DICTATOR + 0.14 vrs_F.A.N.G + 0.1 vrs_GUILE
 + 0.1 vrs_IBUKI + 0.04 vrs_JURI + 0.04 vrs_KARIN + 0.02 vrs_KEN
 - 0.08 vrs_KOLIN + 0.1 vrs_LAURA + 0.02 vrs_NASH + 0.08 vrs_NECALLI
 + 0.04 vrs_RAINBOW_MIKA + 0.08 vrs_RASHID + 0.18 vrs_URIEN + 0.06 vrs_ZANGIEF
 - vrs_w >= 0
_C46: 0.06 vrs_ALEX + 0.12 vrs_BIRDIE + 0.18 vrs_BOXER + 0.02 vrs_CAMMY
 + 0.1 vrs_CLAW + 0.18 vrs_DHALSIM + 0.22 vrs_DICTATOR + 0.12 vrs_F.A.N.G
 - 0.02 vrs_GOUKI + 0.12 vrs_GUILE + 0.08 vrs_IBUKI + 0.06 vrs_KARIN
 - 0.04 vrs_KEN - 0.08 vrs_KOLIN + 0.04 vrs_LAURA + 0.08 vrs_NASH
 + 0.08 vrs_NECALLI + 0.04 vrs_RAINBOW_MIKA + 0.02 vrs_RASHID + 0.16 vrs_URIEN
 + 0.06 vrs_ZANGIEF - vrs_w >= 0
_C47: 0.08 vrs_ALEX + 0.16 vrs_BIRDIE + 0.2 vrs_BOXER - 0.02 vrs_CAMMY
 - 0.04 vrs_CHUN_LI + 0.16 vrs_CLAW + 0.12 vrs_DHALSIM + 0.24 vrs_DICTATOR
 + 0.14 vrs_F.A.N.G - 0.02 vrs_GOUKI + 0.06 vrs_GUILE + 0.08 vrs_IBUKI
 + 0.08 vrs_KARIN - 0.04 vrs_KOLIN + 0.04 vrs_LAURA + 0.06 vrs_NECALLI
 + 0.08 vrs_RAINBOW_MIKA + 0.08 vrs_RASHID + 0.18 vrs_URIEN + 0.08 vrs_ZANGIEF
 - vrs_w >= 0
_C48: 0.06 vrs_ALEX + 0.12 vrs_BIRDIE + 0.14 vrs_BOXER + 0.04 vrs_CAMMY
 + 0.1 vrs_CLAW + 0.18 vrs_DHALSIM + 0.18 vrs_DICTATOR + 0.12 vrs_F.A.N.G
 + 0.16 vrs_GUILE + 0.08 vrs_IBUKI + 0.02 vrs_JURI + 0.06 vrs_KARIN
 - 0.02 vrs_KEN - 0.08 vrs_KOLIN + 0.04 vrs_LAURA + 0.04 vrs_NASH
 + 0.06 vrs_NECALLI + 0.1 vrs_RAINBOW_MIKA + 0.04 vrs_RASHID + 0.02 vrs_RYU
 + 0.18 vrs_URIEN + 0.14 vrs_ZANGIEF - vrs_w >= 0
_C49: 0.1 vrs_ALEX + 0.24 vrs_BIRDIE + 0.24 vrs_BOXER + 0.08 vrs_CHUN_LI
 + 0.16 vrs_CLAW + 0.16 vrs_DHALSIM + 0.26 vrs_DICTATOR + 0.18 vrs_F.A.N.G
 + 0.08 vrs_GOUKI + 0.24 vrs_GUILE + 0.18 vrs_IBUKI + 0.04 vrs_JURI
 + 0.12 vrs_KARIN + 0.04 vrs_KEN + 0.22 vrs_LAURA + 0.08 vrs_NASH
 + 0.14 vrs_NECALLI + 0.08 vrs_RAINBOW_MIKA + 0.14 vrs_RASHID + 0.08 vrs_RYU
 + 0.28 vrs_URIEN + 0.18 vrs_ZANGIEF - vrs_w >= 0
_C5: vrs_LAURA >= 0
_C50: vrs_KOLIN = 1
_C6: vrs_CLAW >= 0
_C7: vrs_BIRDIE >= 0
_C8: vrs_GUILE >= 0
_C9: vrs_F.A.N.G >= 0
Bounds
vrs_ALEX free
vrs_BIRDIE free
vrs_BOXER free
vrs_CAMMY free
vrs_CHUN_LI free
vrs_CLAW free
vrs_DHALSIM free
vrs_DICTATOR free
vrs_F.A.N.G free
vrs_GOUKI free
vrs_GUILE free
vrs_IBUKI free
vrs_JURI free
vrs_KARIN free
vrs_KEN free
vrs_KOLIN free
vrs_LAURA free
vrs_NASH free
vrs_NECALLI free
vrs_RAINBOW_MIKA free
vrs_RASHID free
vrs_RYU free
vrs_URIEN free
vrs_ZANGIEF free
vrs_w free
End
